min: c;

c = 3.64394407407172 * u5_t4_h2 + 3.64394407407172 * u5_t7_h2 + 3.03636024909912 * u5_t4_h3 + 3.03636024909912 * u5_t7_h3 + 2.77920396669597 * u5_t1_h4 + 2.77920396669597 * u5_t3_h4 + 2.77920396669597 * u5_t4_h4 + 2.77920396669597 * u5_t7_h4 + 4.01087639010308 * u5_t1_h5 + 4.01087639010308 * u5_t3_h5 + 4.01087639010308 * u5_t4_h5 + 4.01087639010308 * u5_t7_h5 + 3.64308342339925 * u5_t1_h6 + 3.64308342339925 * u5_t3_h6 + 3.64308342339925 * u5_t4_h6 + 3.64308342339925 * u5_t6_h6 + 3.64308342339925 * u5_t7_h6 + 4.24760702324036 * u5_t1_h7 + 4.24760702324036 * u5_t3_h7 + 4.24760702324036 * u5_t4_h7 + 4.24760702324036 * u5_t6_h7 + 5.74046879629691 * u5_t1_h8 + 5.74046879629691 * u5_t3_h8 + 5.74046879629691 * u5_t4_h8 + 5.74046879629691 * u5_t6_h8 + 5.21490126052062 * u5_t1_h9 + 5.21490126052062 * u5_t3_h9 + 5.21490126052062 * u5_t4_h9 + 5.21490126052062 * u5_t6_h9 + 5.67102162017065 * u5_t1_h10 + 5.67102162017065 * u5_t3_h10 + 5.67102162017065 * u5_t4_h10 + 5.67102162017065 * u5_t6_h10 + 3.91576518730634 * u5_t1_h11 + 3.91576518730634 * u5_t3_h11 + 3.91576518730634 * u5_t4_h11 + 3.91576518730634 * u5_t6_h11 + 6.3951482641867 * u5_t1_h12 + 6.3951482641867 * u5_t3_h12 + 6.3951482641867 * u5_t4_h12 + 6.3951482641867 * u5_t6_h12 + 4.68897098556618 * u5_t1_h13 + 4.68897098556618 * u5_t3_h13 + 4.68897098556618 * u5_t4_h13 + 4.68897098556618 * u5_t6_h13 + 4.68897098556618 * u5_t8_h13 + 4.9308049258183 * u5_t1_h14 + 4.9308049258183 * u5_t3_h14 + 4.9308049258183 * u5_t4_h14 + 4.9308049258183 * u5_t6_h14 + 4.9308049258183 * u5_t8_h14 + 5.96338711752127 * u5_t1_h15 + 5.96338711752127 * u5_t3_h15 + 5.96338711752127 * u5_t4_h15 + 5.96338711752127 * u5_t6_h15 + 5.96338711752127 * u5_t8_h15 + 5.96338711752127 * u5_t9_h15 + 5.56828418939799 * u5_t1_h16 + 5.56828418939799 * u5_t3_h16 + 5.56828418939799 * u5_t4_h16 + 5.56828418939799 * u5_t5_h16 + 5.56828418939799 * u5_t6_h16 + 5.56828418939799 * u5_t8_h16 + 5.56828418939799 * u5_t9_h16 + 6.56066347480759 * u5_t1_h17 + 6.56066347480759 * u5_t5_h17 + 6.56066347480759 * u5_t6_h17 + 6.56066347480759 * u5_t8_h17 + 6.56066347480759 * u5_t9_h17 + 6.56066347480759 * u5_t10_h17 + 6.53102770834909 * u5_t1_h18 + 6.53102770834909 * u5_t2_h18 + 6.53102770834909 * u5_t5_h18 + 6.53102770834909 * u5_t6_h18 + 6.53102770834909 * u5_t9_h18 + 6.53102770834909 * u5_t10_h18 + 5.77601348971926 * u5_t1_h19 + 5.77601348971926 * u5_t2_h19 + 5.77601348971926 * u5_t5_h19 + 5.77601348971926 * u5_t9_h19 + 5.77601348971926 * u5_t10_h19 + 5.65149615978597 * u5_t1_h20 + 5.65149615978597 * u5_t2_h20 + 5.65149615978597 * u5_t5_h20 + 5.65149615978597 * u5_t9_h20 + 5.65149615978597 * u5_t10_h20 + 5.35639013412676 * u5_t2_h21 + 5.35639013412676 * u5_t5_h21 + 5.35639013412676 * u5_t9_h21 + 5.35639013412676 * u5_t10_h21 + 5.23297024203777 * u5_t2_h22 + 5.23297024203777 * u5_t5_h22 + 5.23297024203777 * u5_t9_h22 + 5.23297024203777 * u5_t10_h22 + 5.65769021795724 * u5_t5_h23 + 5.65769021795724 * u5_t9_h23 + 5.65769021795724 * u5_t10_h23;
0 <= u5_t1_h4 <= 1;
0 <= u5_t1_h5 <= 1;
0 <= u5_t1_h6 <= 1;
0 <= u5_t1_h7 <= 1;
0 <= u5_t1_h8 <= 1;
0 <= u5_t1_h9 <= 1;
0 <= u5_t1_h10 <= 1;
0 <= u5_t1_h11 <= 1;
0 <= u5_t1_h12 <= 1;
0 <= u5_t1_h13 <= 1;
0 <= u5_t1_h14 <= 1;
0 <= u5_t1_h15 <= 1;
0 <= u5_t1_h16 <= 1;
0 <= u5_t1_h17 <= 1;
0 <= u5_t1_h18 <= 1;
0 <= u5_t1_h19 <= 1;
0 <= u5_t1_h20 <= 1;
u5_t1_h4 + u5_t1_h5 + u5_t1_h6 + u5_t1_h7 + u5_t1_h8 + u5_t1_h9 + u5_t1_h10 + u5_t1_h11 + u5_t1_h12 + u5_t1_h13 + u5_t1_h14 + u5_t1_h15 + u5_t1_h16 + u5_t1_h17 + u5_t1_h18 + u5_t1_h19 + u5_t1_h20 = 1;
0 <= u5_t2_h18 <= 1;
0 <= u5_t2_h19 <= 1;
0 <= u5_t2_h20 <= 1;
0 <= u5_t2_h21 <= 1;
0 <= u5_t2_h22 <= 1;
u5_t2_h18 + u5_t2_h19 + u5_t2_h20 + u5_t2_h21 + u5_t2_h22 = 3;
0 <= u5_t3_h4 <= 1;
0 <= u5_t3_h5 <= 1;
0 <= u5_t3_h6 <= 1;
0 <= u5_t3_h7 <= 1;
0 <= u5_t3_h8 <= 1;
0 <= u5_t3_h9 <= 1;
0 <= u5_t3_h10 <= 1;
0 <= u5_t3_h11 <= 1;
0 <= u5_t3_h12 <= 1;
0 <= u5_t3_h13 <= 1;
0 <= u5_t3_h14 <= 1;
0 <= u5_t3_h15 <= 1;
0 <= u5_t3_h16 <= 1;
u5_t3_h4 + u5_t3_h5 + u5_t3_h6 + u5_t3_h7 + u5_t3_h8 + u5_t3_h9 + u5_t3_h10 + u5_t3_h11 + u5_t3_h12 + u5_t3_h13 + u5_t3_h14 + u5_t3_h15 + u5_t3_h16 = 1;
0 <= u5_t4_h2 <= 1;
0 <= u5_t4_h3 <= 1;
0 <= u5_t4_h4 <= 1;
0 <= u5_t4_h5 <= 1;
0 <= u5_t4_h6 <= 1;
0 <= u5_t4_h7 <= 1;
0 <= u5_t4_h8 <= 1;
0 <= u5_t4_h9 <= 1;
0 <= u5_t4_h10 <= 1;
0 <= u5_t4_h11 <= 1;
0 <= u5_t4_h12 <= 1;
0 <= u5_t4_h13 <= 1;
0 <= u5_t4_h14 <= 1;
0 <= u5_t4_h15 <= 1;
0 <= u5_t4_h16 <= 1;
u5_t4_h2 + u5_t4_h3 + u5_t4_h4 + u5_t4_h5 + u5_t4_h6 + u5_t4_h7 + u5_t4_h8 + u5_t4_h9 + u5_t4_h10 + u5_t4_h11 + u5_t4_h12 + u5_t4_h13 + u5_t4_h14 + u5_t4_h15 + u5_t4_h16 = 3;
0 <= u5_t5_h16 <= 1;
0 <= u5_t5_h17 <= 1;
0 <= u5_t5_h18 <= 1;
0 <= u5_t5_h19 <= 1;
0 <= u5_t5_h20 <= 1;
0 <= u5_t5_h21 <= 1;
0 <= u5_t5_h22 <= 1;
0 <= u5_t5_h23 <= 1;
u5_t5_h16 + u5_t5_h17 + u5_t5_h18 + u5_t5_h19 + u5_t5_h20 + u5_t5_h21 + u5_t5_h22 + u5_t5_h23 = 2;
0 <= u5_t6_h6 <= 1;
0 <= u5_t6_h7 <= 1;
0 <= u5_t6_h8 <= 1;
0 <= u5_t6_h9 <= 1;
0 <= u5_t6_h10 <= 1;
0 <= u5_t6_h11 <= 1;
0 <= u5_t6_h12 <= 1;
0 <= u5_t6_h13 <= 1;
0 <= u5_t6_h14 <= 1;
0 <= u5_t6_h15 <= 1;
0 <= u5_t6_h16 <= 1;
0 <= u5_t6_h17 <= 1;
0 <= u5_t6_h18 <= 1;
u5_t6_h6 + u5_t6_h7 + u5_t6_h8 + u5_t6_h9 + u5_t6_h10 + u5_t6_h11 + u5_t6_h12 + u5_t6_h13 + u5_t6_h14 + u5_t6_h15 + u5_t6_h16 + u5_t6_h17 + u5_t6_h18 = 2;
0 <= u5_t7_h2 <= 1;
0 <= u5_t7_h3 <= 1;
0 <= u5_t7_h4 <= 1;
0 <= u5_t7_h5 <= 1;
0 <= u5_t7_h6 <= 1;
u5_t7_h2 + u5_t7_h3 + u5_t7_h4 + u5_t7_h5 + u5_t7_h6 = 1;
0 <= u5_t8_h13 <= 1;
0 <= u5_t8_h14 <= 1;
0 <= u5_t8_h15 <= 1;
0 <= u5_t8_h16 <= 1;
0 <= u5_t8_h17 <= 1;
u5_t8_h13 + u5_t8_h14 + u5_t8_h15 + u5_t8_h16 + u5_t8_h17 = 3;
0 <= u5_t9_h15 <= 1;
0 <= u5_t9_h16 <= 1;
0 <= u5_t9_h17 <= 1;
0 <= u5_t9_h18 <= 1;
0 <= u5_t9_h19 <= 1;
0 <= u5_t9_h20 <= 1;
0 <= u5_t9_h21 <= 1;
0 <= u5_t9_h22 <= 1;
0 <= u5_t9_h23 <= 1;
u5_t9_h15 + u5_t9_h16 + u5_t9_h17 + u5_t9_h18 + u5_t9_h19 + u5_t9_h20 + u5_t9_h21 + u5_t9_h22 + u5_t9_h23 = 1;
0 <= u5_t10_h17 <= 1;
0 <= u5_t10_h18 <= 1;
0 <= u5_t10_h19 <= 1;
0 <= u5_t10_h20 <= 1;
0 <= u5_t10_h21 <= 1;
0 <= u5_t10_h22 <= 1;
0 <= u5_t10_h23 <= 1;
u5_t10_h17 + u5_t10_h18 + u5_t10_h19 + u5_t10_h20 + u5_t10_h21 + u5_t10_h22 + u5_t10_h23 = 1;
